
Gurobi 7.0.2 (linux64, Python) logging started Tue Mar  7 14:19:39 2017


Gurobi 7.0.2 (linux64, Python) logging started Tue Mar  7 14:20:02 2017


Gurobi 7.0.2 (linux64, Python) logging started Tue Mar  7 14:20:23 2017


Gurobi 7.0.2 (linux64, Python) logging started Tue Mar  7 14:21:01 2017


Gurobi 7.0.2 (linux64, Python) logging started Tue Mar  7 14:21:28 2017


Gurobi 7.0.2 (linux64, Python) logging started Tue Mar  7 14:27:48 2017


Gurobi 7.0.2 (linux64, Python) logging started Tue Mar  7 14:40:03 2017


Gurobi 7.0.2 (linux64, Python) logging started Sat Mar 11 19:17:48 2017


Gurobi 7.0.2 (linux64, Python) logging started Sat Mar 11 19:18:16 2017


Gurobi 7.0.2 (linux64, Python) logging started Sat Mar 11 19:27:16 2017


Gurobi 7.0.2 (linux64, Python) logging started Sat Mar 11 19:39:37 2017


Gurobi 7.0.2 (linux64, Python) logging started Sat Mar 11 19:46:05 2017


Gurobi 7.0.2 (linux64, Python) logging started Sat Mar 11 19:53:55 2017


Gurobi 7.0.2 (linux64, Python) logging started Sat Mar 11 20:24:57 2017


Gurobi 7.0.2 (linux64, Python) logging started Sat Mar 11 20:31:00 2017

